*SENSE:Minimize
NAME          MODEL
ROWS
 N  OBJ
 E  C0000000
 E  C0000001
 E  C0000002
 E  C0000003
 E  C0000004
 E  C0000005
 E  C0000006
 E  C0000007
 E  C0000008
 E  C0000009
 E  C0000010
 E  C0000011
 E  C0000012
 E  C0000013
 E  C0000014
 L  C0000015
 L  C0000016
 L  C0000017
 L  C0000018
 L  C0000019
 L  C0000020
 L  C0000021
 L  C0000022
 L  C0000023
 L  C0000024
 L  C0000025
 L  C0000026
 L  C0000027
 L  C0000028
 L  C0000029
 L  C0000030
 L  C0000031
 L  C0000032
 L  C0000033
 L  C0000034
 L  C0000035
 L  C0000036
 L  C0000037
 L  C0000038
 L  C0000039
 L  C0000040
 L  C0000041
 L  C0000042
 L  C0000043
 L  C0000044
 L  C0000045
 L  C0000046
 L  C0000047
 L  C0000048
 L  C0000049
 L  C0000050
 L  C0000051
 L  C0000052
 L  C0000053
 L  C0000054
 L  C0000055
 L  C0000056
 L  C0000057
 L  C0000058
 L  C0000059
 L  C0000060
 L  C0000061
 L  C0000062
 L  C0000063
 L  C0000064
 L  C0000065
 L  C0000066
 L  C0000067
 L  C0000068
 L  C0000069
 L  C0000070
 L  C0000071
 L  C0000072
 L  C0000073
 L  C0000074
 L  C0000075
 L  C0000076
 L  C0000077
 L  C0000078
 L  C0000079
 L  C0000080
 L  C0000081
 L  C0000082
 L  C0000083
COLUMNS
    MARK      'MARKER'                 'INTORG'
    X0000000  C0000000   1.000000000000e+00
    X0000000  C0000015   1.000000000000e+00
    X0000000  C0000018   1.000000000000e+00
    X0000000  C0000021   1.000000000000e+00
    X0000000  C0000024   1.000000000000e+00
    MARK      'MARKER'                 'INTEND'
    MARK      'MARKER'                 'INTORG'
    X0000001  C0000000   1.000000000000e+00
    X0000001  C0000016   1.000000000000e+00
    X0000001  C0000019   1.000000000000e+00
    X0000001  C0000022   1.000000000000e+00
    X0000001  C0000025   1.000000000000e+00
    MARK      'MARKER'                 'INTEND'
    MARK      'MARKER'                 'INTORG'
    X0000002  C0000000   1.000000000000e+00
    X0000002  C0000017   1.000000000000e+00
    X0000002  C0000020   1.000000000000e+00
    X0000002  C0000023   1.000000000000e+00
    X0000002  C0000026   1.000000000000e+00
    MARK      'MARKER'                 'INTEND'
    MARK      'MARKER'                 'INTORG'
    X0000003  C0000001   1.000000000000e+00
    X0000003  C0000015   1.000000000000e+00
    X0000003  C0000027   1.000000000000e+00
    X0000003  C0000030   1.000000000000e+00
    X0000003  C0000033   1.000000000000e+00
    X0000003  C0000036   1.000000000000e+00
    X0000003  C0000039   1.000000000000e+00
    MARK      'MARKER'                 'INTEND'
    MARK      'MARKER'                 'INTORG'
    X0000004  C0000001   1.000000000000e+00
    X0000004  C0000016   1.000000000000e+00
    X0000004  C0000028   1.000000000000e+00
    X0000004  C0000031   1.000000000000e+00
    X0000004  C0000034   1.000000000000e+00
    X0000004  C0000037   1.000000000000e+00
    X0000004  C0000040   1.000000000000e+00
    MARK      'MARKER'                 'INTEND'
    MARK      'MARKER'                 'INTORG'
    X0000005  C0000001   1.000000000000e+00
    X0000005  C0000017   1.000000000000e+00
    X0000005  C0000029   1.000000000000e+00
    X0000005  C0000032   1.000000000000e+00
    X0000005  C0000035   1.000000000000e+00
    X0000005  C0000038   1.000000000000e+00
    X0000005  C0000041   1.000000000000e+00
    MARK      'MARKER'                 'INTEND'
    MARK      'MARKER'                 'INTORG'
    X0000006  C0000010   1.000000000000e+00
    X0000006  C0000036   1.000000000000e+00
    X0000006  C0000051   1.000000000000e+00
    X0000006  C0000078   1.000000000000e+00
    MARK      'MARKER'                 'INTEND'
    MARK      'MARKER'                 'INTORG'
    X0000007  C0000010   1.000000000000e+00
    X0000007  C0000037   1.000000000000e+00
    X0000007  C0000052   1.000000000000e+00
    X0000007  C0000079   1.000000000000e+00
    MARK      'MARKER'                 'INTEND'
    MARK      'MARKER'                 'INTORG'
    X0000008  C0000010   1.000000000000e+00
    X0000008  C0000038   1.000000000000e+00
    X0000008  C0000053   1.000000000000e+00
    X0000008  C0000080   1.000000000000e+00
    MARK      'MARKER'                 'INTEND'
    MARK      'MARKER'                 'INTORG'
    X0000009  C0000011   1.000000000000e+00
    X0000009  C0000054   1.000000000000e+00
    X0000009  C0000060   1.000000000000e+00
    X0000009  C0000069   1.000000000000e+00
    X0000009  C0000081   1.000000000000e+00
    MARK      'MARKER'                 'INTEND'
    MARK      'MARKER'                 'INTORG'
    X0000010  C0000011   1.000000000000e+00
    X0000010  C0000055   1.000000000000e+00
    X0000010  C0000061   1.000000000000e+00
    X0000010  C0000070   1.000000000000e+00
    X0000010  C0000082   1.000000000000e+00
    MARK      'MARKER'                 'INTEND'
    MARK      'MARKER'                 'INTORG'
    X0000011  C0000011   1.000000000000e+00
    X0000011  C0000056   1.000000000000e+00
    X0000011  C0000062   1.000000000000e+00
    X0000011  C0000071   1.000000000000e+00
    X0000011  C0000083   1.000000000000e+00
    MARK      'MARKER'                 'INTEND'
    MARK      'MARKER'                 'INTORG'
    X0000012  C0000012   1.000000000000e+00
    X0000012  C0000072   1.000000000000e+00
    MARK      'MARKER'                 'INTEND'
    MARK      'MARKER'                 'INTORG'
    X0000013  C0000012   1.000000000000e+00
    X0000013  C0000073   1.000000000000e+00
    MARK      'MARKER'                 'INTEND'
    MARK      'MARKER'                 'INTORG'
    X0000014  C0000012   1.000000000000e+00
    X0000014  C0000074   1.000000000000e+00
    MARK      'MARKER'                 'INTEND'
    MARK      'MARKER'                 'INTORG'
    X0000015  C0000013   1.000000000000e+00
    X0000015  C0000039   1.000000000000e+00
    X0000015  C0000048   1.000000000000e+00
    X0000015  C0000081   1.000000000000e+00
    MARK      'MARKER'                 'INTEND'
    MARK      'MARKER'                 'INTORG'
    X0000016  C0000013   1.000000000000e+00
    X0000016  C0000040   1.000000000000e+00
    X0000016  C0000049   1.000000000000e+00
    X0000016  C0000082   1.000000000000e+00
    MARK      'MARKER'                 'INTEND'
    MARK      'MARKER'                 'INTORG'
    X0000017  C0000013   1.000000000000e+00
    X0000017  C0000041   1.000000000000e+00
    X0000017  C0000050   1.000000000000e+00
    X0000017  C0000083   1.000000000000e+00
    MARK      'MARKER'                 'INTEND'
    MARK      'MARKER'                 'INTORG'
    X0000018  C0000014   1.000000000000e+00
    X0000018  C0000024   1.000000000000e+00
    X0000018  C0000066   1.000000000000e+00
    X0000018  C0000075   1.000000000000e+00
    X0000018  C0000078   1.000000000000e+00
    MARK      'MARKER'                 'INTEND'
    MARK      'MARKER'                 'INTORG'
    X0000019  C0000014   1.000000000000e+00
    X0000019  C0000025   1.000000000000e+00
    X0000019  C0000067   1.000000000000e+00
    X0000019  C0000076   1.000000000000e+00
    X0000019  C0000079   1.000000000000e+00
    MARK      'MARKER'                 'INTEND'
    MARK      'MARKER'                 'INTORG'
    X0000020  C0000014   1.000000000000e+00
    X0000020  C0000026   1.000000000000e+00
    X0000020  C0000068   1.000000000000e+00
    X0000020  C0000077   1.000000000000e+00
    X0000020  C0000080   1.000000000000e+00
    MARK      'MARKER'                 'INTEND'
    MARK      'MARKER'                 'INTORG'
    X0000021  C0000002   1.000000000000e+00
    X0000021  C0000027   1.000000000000e+00
    X0000021  C0000042   1.000000000000e+00
    MARK      'MARKER'                 'INTEND'
    MARK      'MARKER'                 'INTORG'
    X0000022  C0000002   1.000000000000e+00
    X0000022  C0000028   1.000000000000e+00
    X0000022  C0000043   1.000000000000e+00
    MARK      'MARKER'                 'INTEND'
    MARK      'MARKER'                 'INTORG'
    X0000023  C0000002   1.000000000000e+00
    X0000023  C0000029   1.000000000000e+00
    X0000023  C0000044   1.000000000000e+00
    MARK      'MARKER'                 'INTEND'
    MARK      'MARKER'                 'INTORG'
    X0000024  C0000003   1.000000000000e+00
    X0000024  C0000045   1.000000000000e+00
    X0000024  C0000048   1.000000000000e+00
    MARK      'MARKER'                 'INTEND'
    MARK      'MARKER'                 'INTORG'
    X0000025  C0000003   1.000000000000e+00
    X0000025  C0000046   1.000000000000e+00
    X0000025  C0000049   1.000000000000e+00
    MARK      'MARKER'                 'INTEND'
    MARK      'MARKER'                 'INTORG'
    X0000026  C0000003   1.000000000000e+00
    X0000026  C0000047   1.000000000000e+00
    X0000026  C0000050   1.000000000000e+00
    MARK      'MARKER'                 'INTEND'
    MARK      'MARKER'                 'INTORG'
    X0000027  C0000004   1.000000000000e+00
    X0000027  C0000030   1.000000000000e+00
    X0000027  C0000045   1.000000000000e+00
    X0000027  C0000051   1.000000000000e+00
    X0000027  C0000054   1.000000000000e+00
    MARK      'MARKER'                 'INTEND'
    MARK      'MARKER'                 'INTORG'
    X0000028  C0000004   1.000000000000e+00
    X0000028  C0000031   1.000000000000e+00
    X0000028  C0000046   1.000000000000e+00
    X0000028  C0000052   1.000000000000e+00
    X0000028  C0000055   1.000000000000e+00
    MARK      'MARKER'                 'INTEND'
    MARK      'MARKER'                 'INTORG'
    X0000029  C0000004   1.000000000000e+00
    X0000029  C0000032   1.000000000000e+00
    X0000029  C0000047   1.000000000000e+00
    X0000029  C0000053   1.000000000000e+00
    X0000029  C0000056   1.000000000000e+00
    MARK      'MARKER'                 'INTEND'
    MARK      'MARKER'                 'INTORG'
    X0000030  C0000005   1.000000000000e+00
    X0000030  C0000057   1.000000000000e+00
    X0000030  C0000060   1.000000000000e+00
    MARK      'MARKER'                 'INTEND'
    MARK      'MARKER'                 'INTORG'
    X0000031  C0000005   1.000000000000e+00
    X0000031  C0000058   1.000000000000e+00
    X0000031  C0000061   1.000000000000e+00
    MARK      'MARKER'                 'INTEND'
    MARK      'MARKER'                 'INTORG'
    X0000032  C0000005   1.000000000000e+00
    X0000032  C0000059   1.000000000000e+00
    X0000032  C0000062   1.000000000000e+00
    MARK      'MARKER'                 'INTEND'
    MARK      'MARKER'                 'INTORG'
    X0000033  C0000006   1.000000000000e+00
    X0000033  C0000042   1.000000000000e+00
    X0000033  C0000063   1.000000000000e+00
    X0000033  C0000066   1.000000000000e+00
    MARK      'MARKER'                 'INTEND'
    MARK      'MARKER'                 'INTORG'
    X0000034  C0000006   1.000000000000e+00
    X0000034  C0000043   1.000000000000e+00
    X0000034  C0000064   1.000000000000e+00
    X0000034  C0000067   1.000000000000e+00
    MARK      'MARKER'                 'INTEND'
    MARK      'MARKER'                 'INTORG'
    X0000035  C0000006   1.000000000000e+00
    X0000035  C0000044   1.000000000000e+00
    X0000035  C0000065   1.000000000000e+00
    X0000035  C0000068   1.000000000000e+00
    MARK      'MARKER'                 'INTEND'
    MARK      'MARKER'                 'INTORG'
    X0000036  C0000007   1.000000000000e+00
    X0000036  C0000033   1.000000000000e+00
    X0000036  C0000069   1.000000000000e+00
    MARK      'MARKER'                 'INTEND'
    MARK      'MARKER'                 'INTORG'
    X0000037  C0000007   1.000000000000e+00
    X0000037  C0000034   1.000000000000e+00
    X0000037  C0000070   1.000000000000e+00
    MARK      'MARKER'                 'INTEND'
    MARK      'MARKER'                 'INTORG'
    X0000038  C0000007   1.000000000000e+00
    X0000038  C0000035   1.000000000000e+00
    X0000038  C0000071   1.000000000000e+00
    MARK      'MARKER'                 'INTEND'
    MARK      'MARKER'                 'INTORG'
    X0000039  C0000008   1.000000000000e+00
    X0000039  C0000018   1.000000000000e+00
    X0000039  C0000057   1.000000000000e+00
    MARK      'MARKER'                 'INTEND'
    MARK      'MARKER'                 'INTORG'
    X0000040  C0000008   1.000000000000e+00
    X0000040  C0000019   1.000000000000e+00
    X0000040  C0000058   1.000000000000e+00
    MARK      'MARKER'                 'INTEND'
    MARK      'MARKER'                 'INTORG'
    X0000041  C0000008   1.000000000000e+00
    X0000041  C0000020   1.000000000000e+00
    X0000041  C0000059   1.000000000000e+00
    MARK      'MARKER'                 'INTEND'
    MARK      'MARKER'                 'INTORG'
    X0000042  C0000009   1.000000000000e+00
    X0000042  C0000021   1.000000000000e+00
    X0000042  C0000063   1.000000000000e+00
    X0000042  C0000072   1.000000000000e+00
    X0000042  C0000075   1.000000000000e+00
    MARK      'MARKER'                 'INTEND'
    MARK      'MARKER'                 'INTORG'
    X0000043  C0000009   1.000000000000e+00
    X0000043  C0000022   1.000000000000e+00
    X0000043  C0000064   1.000000000000e+00
    X0000043  C0000073   1.000000000000e+00
    X0000043  C0000076   1.000000000000e+00
    MARK      'MARKER'                 'INTEND'
    MARK      'MARKER'                 'INTORG'
    X0000044  C0000009   1.000000000000e+00
    X0000044  C0000023   1.000000000000e+00
    X0000044  C0000065   1.000000000000e+00
    X0000044  C0000074   1.000000000000e+00
    X0000044  C0000077   1.000000000000e+00
    MARK      'MARKER'                 'INTEND'
    MARK      'MARKER'                 'INTORG'
    X0000045  C0000015  -1.000000000000e+00
    X0000045  C0000016  -1.000000000000e+00
    X0000045  C0000017  -1.000000000000e+00
    X0000045  OBJ        1.000000000000e+00
    MARK      'MARKER'                 'INTEND'
    MARK      'MARKER'                 'INTORG'
    X0000046  C0000024  -1.000000000000e+00
    X0000046  C0000025  -1.000000000000e+00
    X0000046  C0000026  -1.000000000000e+00
    X0000046  OBJ        1.000000000000e+00
    MARK      'MARKER'                 'INTEND'
    MARK      'MARKER'                 'INTORG'
    X0000047  C0000018  -1.000000000000e+00
    X0000047  C0000019  -1.000000000000e+00
    X0000047  C0000020  -1.000000000000e+00
    X0000047  OBJ        1.000000000000e+00
    MARK      'MARKER'                 'INTEND'
    MARK      'MARKER'                 'INTORG'
    X0000048  C0000021  -1.000000000000e+00
    X0000048  C0000022  -1.000000000000e+00
    X0000048  C0000023  -1.000000000000e+00
    X0000048  OBJ        1.000000000000e+00
    MARK      'MARKER'                 'INTEND'
    MARK      'MARKER'                 'INTORG'
    X0000049  C0000036  -1.000000000000e+00
    X0000049  C0000037  -1.000000000000e+00
    X0000049  C0000038  -1.000000000000e+00
    X0000049  OBJ        1.000000000000e+00
    MARK      'MARKER'                 'INTEND'
    MARK      'MARKER'                 'INTORG'
    X0000050  C0000039  -1.000000000000e+00
    X0000050  C0000040  -1.000000000000e+00
    X0000050  C0000041  -1.000000000000e+00
    X0000050  OBJ        1.000000000000e+00
    MARK      'MARKER'                 'INTEND'
    MARK      'MARKER'                 'INTORG'
    X0000051  C0000027  -1.000000000000e+00
    X0000051  C0000028  -1.000000000000e+00
    X0000051  C0000029  -1.000000000000e+00
    X0000051  OBJ        1.000000000000e+00
    MARK      'MARKER'                 'INTEND'
    MARK      'MARKER'                 'INTORG'
    X0000052  C0000030  -1.000000000000e+00
    X0000052  C0000031  -1.000000000000e+00
    X0000052  C0000032  -1.000000000000e+00
    X0000052  OBJ        1.000000000000e+00
    MARK      'MARKER'                 'INTEND'
    MARK      'MARKER'                 'INTORG'
    X0000053  C0000033  -1.000000000000e+00
    X0000053  C0000034  -1.000000000000e+00
    X0000053  C0000035  -1.000000000000e+00
    X0000053  OBJ        1.000000000000e+00
    MARK      'MARKER'                 'INTEND'
    MARK      'MARKER'                 'INTORG'
    X0000054  C0000078  -1.000000000000e+00
    X0000054  C0000079  -1.000000000000e+00
    X0000054  C0000080  -1.000000000000e+00
    X0000054  OBJ        1.000000000000e+00
    MARK      'MARKER'                 'INTEND'
    MARK      'MARKER'                 'INTORG'
    X0000055  C0000081  -1.000000000000e+00
    X0000055  C0000082  -1.000000000000e+00
    X0000055  C0000083  -1.000000000000e+00
    X0000055  OBJ        1.000000000000e+00
    MARK      'MARKER'                 'INTEND'
    MARK      'MARKER'                 'INTORG'
    X0000056  C0000042  -1.000000000000e+00
    X0000056  C0000043  -1.000000000000e+00
    X0000056  C0000044  -1.000000000000e+00
    X0000056  OBJ        1.000000000000e+00
    MARK      'MARKER'                 'INTEND'
    MARK      'MARKER'                 'INTORG'
    X0000057  C0000048  -1.000000000000e+00
    X0000057  C0000049  -1.000000000000e+00
    X0000057  C0000050  -1.000000000000e+00
    X0000057  OBJ        1.000000000000e+00
    MARK      'MARKER'                 'INTEND'
    MARK      'MARKER'                 'INTORG'
    X0000058  C0000045  -1.000000000000e+00
    X0000058  C0000046  -1.000000000000e+00
    X0000058  C0000047  -1.000000000000e+00
    X0000058  OBJ        1.000000000000e+00
    MARK      'MARKER'                 'INTEND'
    MARK      'MARKER'                 'INTORG'
    X0000059  C0000051  -1.000000000000e+00
    X0000059  C0000052  -1.000000000000e+00
    X0000059  C0000053  -1.000000000000e+00
    X0000059  OBJ        1.000000000000e+00
    MARK      'MARKER'                 'INTEND'
    MARK      'MARKER'                 'INTORG'
    X0000060  C0000054  -1.000000000000e+00
    X0000060  C0000055  -1.000000000000e+00
    X0000060  C0000056  -1.000000000000e+00
    X0000060  OBJ        1.000000000000e+00
    MARK      'MARKER'                 'INTEND'
    MARK      'MARKER'                 'INTORG'
    X0000061  C0000060  -1.000000000000e+00
    X0000061  C0000061  -1.000000000000e+00
    X0000061  C0000062  -1.000000000000e+00
    X0000061  OBJ        1.000000000000e+00
    MARK      'MARKER'                 'INTEND'
    MARK      'MARKER'                 'INTORG'
    X0000062  C0000057  -1.000000000000e+00
    X0000062  C0000058  -1.000000000000e+00
    X0000062  C0000059  -1.000000000000e+00
    X0000062  OBJ        1.000000000000e+00
    MARK      'MARKER'                 'INTEND'
    MARK      'MARKER'                 'INTORG'
    X0000063  C0000066  -1.000000000000e+00
    X0000063  C0000067  -1.000000000000e+00
    X0000063  C0000068  -1.000000000000e+00
    X0000063  OBJ        1.000000000000e+00
    MARK      'MARKER'                 'INTEND'
    MARK      'MARKER'                 'INTORG'
    X0000064  C0000063  -1.000000000000e+00
    X0000064  C0000064  -1.000000000000e+00
    X0000064  C0000065  -1.000000000000e+00
    X0000064  OBJ        1.000000000000e+00
    MARK      'MARKER'                 'INTEND'
    MARK      'MARKER'                 'INTORG'
    X0000065  C0000069  -1.000000000000e+00
    X0000065  C0000070  -1.000000000000e+00
    X0000065  C0000071  -1.000000000000e+00
    X0000065  OBJ        1.000000000000e+00
    MARK      'MARKER'                 'INTEND'
    MARK      'MARKER'                 'INTORG'
    X0000066  C0000072  -1.000000000000e+00
    X0000066  C0000073  -1.000000000000e+00
    X0000066  C0000074  -1.000000000000e+00
    X0000066  OBJ        1.000000000000e+00
    MARK      'MARKER'                 'INTEND'
    MARK      'MARKER'                 'INTORG'
    X0000067  C0000075  -1.000000000000e+00
    X0000067  C0000076  -1.000000000000e+00
    X0000067  C0000077  -1.000000000000e+00
    X0000067  OBJ        1.000000000000e+00
    MARK      'MARKER'                 'INTEND'
RHS
    RHS       C0000000   1.000000000000e+00
    RHS       C0000001   1.000000000000e+00
    RHS       C0000002   1.000000000000e+00
    RHS       C0000003   1.000000000000e+00
    RHS       C0000004   1.000000000000e+00
    RHS       C0000005   1.000000000000e+00
    RHS       C0000006   1.000000000000e+00
    RHS       C0000007   1.000000000000e+00
    RHS       C0000008   1.000000000000e+00
    RHS       C0000009   1.000000000000e+00
    RHS       C0000010   1.000000000000e+00
    RHS       C0000011   1.000000000000e+00
    RHS       C0000012   1.000000000000e+00
    RHS       C0000013   1.000000000000e+00
    RHS       C0000014   1.000000000000e+00
    RHS       C0000015   1.000000000000e+00
    RHS       C0000016   1.000000000000e+00
    RHS       C0000017   1.000000000000e+00
    RHS       C0000018   1.000000000000e+00
    RHS       C0000019   1.000000000000e+00
    RHS       C0000020   1.000000000000e+00
    RHS       C0000021   1.000000000000e+00
    RHS       C0000022   1.000000000000e+00
    RHS       C0000023   1.000000000000e+00
    RHS       C0000024   1.000000000000e+00
    RHS       C0000025   1.000000000000e+00
    RHS       C0000026   1.000000000000e+00
    RHS       C0000027   1.000000000000e+00
    RHS       C0000028   1.000000000000e+00
    RHS       C0000029   1.000000000000e+00
    RHS       C0000030   1.000000000000e+00
    RHS       C0000031   1.000000000000e+00
    RHS       C0000032   1.000000000000e+00
    RHS       C0000033   1.000000000000e+00
    RHS       C0000034   1.000000000000e+00
    RHS       C0000035   1.000000000000e+00
    RHS       C0000036   1.000000000000e+00
    RHS       C0000037   1.000000000000e+00
    RHS       C0000038   1.000000000000e+00
    RHS       C0000039   1.000000000000e+00
    RHS       C0000040   1.000000000000e+00
    RHS       C0000041   1.000000000000e+00
    RHS       C0000042   1.000000000000e+00
    RHS       C0000043   1.000000000000e+00
    RHS       C0000044   1.000000000000e+00
    RHS       C0000045   1.000000000000e+00
    RHS       C0000046   1.000000000000e+00
    RHS       C0000047   1.000000000000e+00
    RHS       C0000048   1.000000000000e+00
    RHS       C0000049   1.000000000000e+00
    RHS       C0000050   1.000000000000e+00
    RHS       C0000051   1.000000000000e+00
    RHS       C0000052   1.000000000000e+00
    RHS       C0000053   1.000000000000e+00
    RHS       C0000054   1.000000000000e+00
    RHS       C0000055   1.000000000000e+00
    RHS       C0000056   1.000000000000e+00
    RHS       C0000057   1.000000000000e+00
    RHS       C0000058   1.000000000000e+00
    RHS       C0000059   1.000000000000e+00
    RHS       C0000060   1.000000000000e+00
    RHS       C0000061   1.000000000000e+00
    RHS       C0000062   1.000000000000e+00
    RHS       C0000063   1.000000000000e+00
    RHS       C0000064   1.000000000000e+00
    RHS       C0000065   1.000000000000e+00
    RHS       C0000066   1.000000000000e+00
    RHS       C0000067   1.000000000000e+00
    RHS       C0000068   1.000000000000e+00
    RHS       C0000069   1.000000000000e+00
    RHS       C0000070   1.000000000000e+00
    RHS       C0000071   1.000000000000e+00
    RHS       C0000072   1.000000000000e+00
    RHS       C0000073   1.000000000000e+00
    RHS       C0000074   1.000000000000e+00
    RHS       C0000075   1.000000000000e+00
    RHS       C0000076   1.000000000000e+00
    RHS       C0000077   1.000000000000e+00
    RHS       C0000078   1.000000000000e+00
    RHS       C0000079   1.000000000000e+00
    RHS       C0000080   1.000000000000e+00
    RHS       C0000081   1.000000000000e+00
    RHS       C0000082   1.000000000000e+00
    RHS       C0000083   1.000000000000e+00
BOUNDS
 BV BND       X0000000
 BV BND       X0000001
 BV BND       X0000002
 BV BND       X0000003
 BV BND       X0000004
 BV BND       X0000005
 BV BND       X0000006
 BV BND       X0000007
 BV BND       X0000008
 BV BND       X0000009
 BV BND       X0000010
 BV BND       X0000011
 BV BND       X0000012
 BV BND       X0000013
 BV BND       X0000014
 BV BND       X0000015
 BV BND       X0000016
 BV BND       X0000017
 BV BND       X0000018
 BV BND       X0000019
 BV BND       X0000020
 BV BND       X0000021
 BV BND       X0000022
 BV BND       X0000023
 BV BND       X0000024
 BV BND       X0000025
 BV BND       X0000026
 BV BND       X0000027
 BV BND       X0000028
 BV BND       X0000029
 BV BND       X0000030
 BV BND       X0000031
 BV BND       X0000032
 BV BND       X0000033
 BV BND       X0000034
 BV BND       X0000035
 BV BND       X0000036
 BV BND       X0000037
 BV BND       X0000038
 BV BND       X0000039
 BV BND       X0000040
 BV BND       X0000041
 BV BND       X0000042
 BV BND       X0000043
 BV BND       X0000044
 BV BND       X0000045
 BV BND       X0000046
 BV BND       X0000047
 BV BND       X0000048
 BV BND       X0000049
 BV BND       X0000050
 BV BND       X0000051
 BV BND       X0000052
 BV BND       X0000053
 BV BND       X0000054
 BV BND       X0000055
 BV BND       X0000056
 BV BND       X0000057
 BV BND       X0000058
 BV BND       X0000059
 BV BND       X0000060
 BV BND       X0000061
 BV BND       X0000062
 BV BND       X0000063
 BV BND       X0000064
 BV BND       X0000065
 BV BND       X0000066
 BV BND       X0000067
ENDATA
